c DESCRIPTION: Quasi-random coloring problem
c CODE SOURCE: Joseph Culberson (joe@cs.ualberta.ca)
c Specifications: 
c   Random seed: 9342
c   No hidden coloring
c   Probability: 0.100000
c   random IID graph
c   Degree Information:
c   Min:2 Avg:7.171429 Max:12 Std:2.124493
c No verification required.
c Creation Date: Fri Aug  8 11:36:40 2003
p edge 70 251
c no cheat
e 5 3
e 6 2
e 7 4
e 8 5
e 9 4
e 9 5
e 10 2
e 10 9
e 13 1
e 14 1
e 14 2
e 15 2
e 15 11
e 16 5
e 17 9
e 18 2
e 18 9
e 18 13
e 19 16
e 20 3
e 20 15
e 21 1
e 21 4
e 21 13
e 21 16
e 22 4
e 22 20
e 23 3
e 23 12
e 23 13
e 24 11
e 24 20
e 24 22
e 25 8
e 25 11
e 25 22
e 26 1
e 26 9
e 26 22
e 28 14
e 28 19
e 29 8
e 29 10
e 32 10
e 32 17
e 32 26
e 32 27
e 33 10
e 33 13
e 33 26
e 33 30
e 34 6
e 34 13
e 34 17
e 34 26
e 35 10
e 35 12
e 35 27
e 35 33
e 35 34
e 36 1
e 36 5
e 36 18
e 36 20
e 36 33
e 37 9
e 37 14
e 37 27
e 38 8
e 38 16
e 38 23
e 38 28
e 39 17
e 39 22
e 39 29
e 39 35
e 40 20
e 40 33
e 41 7
e 41 11
e 41 17
e 41 21
e 42 16
e 42 17
e 42 24
e 42 27
e 42 40
e 43 2
e 43 4
e 43 6
e 43 18
e 43 26
e 43 35
e 44 34
e 44 40
e 45 4
e 45 8
e 45 9
e 45 21
e 46 12
e 46 21
e 46 31
e 46 33
e 46 38
e 47 2
e 47 6
e 47 8
e 47 34
e 48 23
e 48 27
e 48 30
e 48 31
e 48 34
e 48 38
e 49 10
e 49 14
e 49 36
e 49 37
e 49 44
e 49 46
e 50 3
e 50 7
e 50 23
e 50 30
e 50 40
e 50 45
e 50 46
e 50 48
e 51 6
e 51 7
e 51 35
e 52 11
e 52 18
e 52 23
e 52 35
e 52 42
e 52 48
e 53 6
e 53 8
e 53 17
e 53 22
e 53 26
e 53 32
e 53 40
e 54 2
e 54 5
e 54 10
e 54 21
e 54 47
e 54 51
e 55 5
e 55 15
e 55 20
e 55 30
e 55 51
e 55 54
e 56 1
e 56 7
e 56 19
e 56 33
e 56 34
e 56 41
e 56 49
e 57 5
e 57 14
e 57 18
e 57 24
e 57 34
e 57 39
e 57 44
e 58 10
e 58 18
e 58 28
e 58 37
e 58 57
e 59 5
e 59 11
e 59 21
e 59 25
e 59 27
e 59 40
e 59 42
e 59 43
e 59 58
e 60 10
e 60 19
e 60 31
e 61 4
e 61 30
e 61 36
e 61 41
e 61 42
e 61 51
e 62 3
e 62 18
e 62 21
e 62 37
e 62 50
e 63 4
e 63 9
e 63 12
e 63 13
e 63 21
e 63 23
e 63 47
e 63 53
e 64 11
e 64 26
e 64 42
e 64 44
e 64 52
e 64 53
e 65 2
e 65 7
e 65 22
e 65 51
e 65 61
e 66 2
e 66 14
e 66 20
e 66 21
e 66 27
e 66 31
e 66 38
e 66 43
e 66 44
e 67 2
e 67 10
e 67 17
e 67 23
e 67 32
e 67 33
e 67 36
e 67 50
e 68 6
e 68 12
e 68 17
e 68 33
e 68 38
e 68 48
e 68 61
e 68 63
e 68 65
e 69 18
e 69 44
e 69 58
e 69 59
e 69 62
e 69 66
e 70 23
e 70 40
n 1 15
n 2 15
n 3 1
n 4 16
n 5 18
n 6 18
n 7 13
n 8 12
n 9 11
n 10 5
n 11 8
n 12 14
n 13 13
n 14 16
n 15 16
n 16 1
n 17 14
n 18 12
n 19 9
n 20 15
n 21 19
n 22 15
n 23 12
n 24 15
n 25 3
n 26 20
n 27 7
n 28 5
n 29 5
n 30 10
n 31 7
n 32 19
n 33 4
n 34 7
n 35 15
n 36 2
n 37 4
n 38 7
n 39 13
n 40 15
n 41 11
n 42 20
n 43 9
n 44 3
n 45 15
n 46 4
n 47 4
n 48 8
n 49 16
n 50 13
n 51 3
n 52 15
n 53 7
n 54 14
n 55 10
n 56 10
n 57 14
n 58 17
n 59 15
n 60 19
n 61 6
n 62 1
n 63 18
n 64 10
n 65 7
n 66 12
n 67 12
n 68 10
n 69 19
n 70 4
